4
3 2
10001
20000
10000
1 2
2 3
5 4
36642
28444
50012
29651
10953
1 4
2 3
2 5
4 5
5 5
36642
28444
50012
29651
10953
1 2
1 4
2 3
2 5
4 5
6 6
10001
10002
10003
10004
10005
10006
1 2
1 6
2 3
2 4
3 5
4 5
